c 3 - XORSAT
p cnf 10 40
5 6 7 0
-5 -6 7 0
-5 6 -7 0
5 -6 -7 0
-9 -10 -8 0
-9 10 8 0
9 -10 8 0
9 10 -8 0
-2 -8 -9 0
-2 8 9 0
2 -8 9 0
2 8 -9 0
3 8 9 0
-3 -8 9 0
-3 8 -9 0
3 -8 -9 0
3 1 7 0
-3 -1 7 0
-3 1 -7 0
3 -1 -7 0
1 3 10 0
-1 -3 10 0
-1 3 -10 0
1 -3 -10 0
-4 -6 -10 0
-4 6 10 0
4 -6 10 0
4 6 -10 0
-4 -2 -5 0
-4 2 5 0
4 -2 5 0
4 2 -5 0
5 6 7 0
-5 -6 7 0
-5 6 -7 0
5 -6 -7 0
1 2 4 0
-1 -2 4 0
-1 2 -4 0
1 -2 -4 0
